# MIP start for GRBModel_R104.100_4-5-5-5
tour-1773  1.0
tour-5707  1.0
tour-6289  1.0
tour-7767  1.0
tour-8895  1.0
tour-12960  1.0
tour-16493  1.0
tour-17860  1.0
tour-19670  1.0
tour-23529  1.0
tour-24353  1.0
tour-27557  1.0
